97
98
Academic license - for non-commercial use only
Optimize a model with 9556 rows, 126819 columns and 110927036 nonzeros
Variable types: 0 continuous, 126819 integer (126819 binary)
Coefficient statistics:
  Matrix range     [1e+00, 1e+00]
  Objective range  [2e+01, 2e+04]
  Bounds range     [1e+00, 1e+00]
  RHS range        [1e+00, 3e+00]
Found heuristic solution: objective 13920
Presolve removed 194 rows and 0 columns (presolve time = 16s) ...
Presolve removed 194 rows and 0 columns (presolve time = 20s) ...
Presolve removed 194 rows and 0 columns (presolve time = 25s) ...
Presolve removed 194 rows and 0 columns (presolve time = 40s) ...
Presolve removed 215 rows and 0 columns (presolve time = 46s) ...
Presolve removed 215 rows and 585 columns (presolve time = 56s) ...
Presolve removed 215 rows and 1790 columns (presolve time = 60s) ...
Presolve removed 215 rows and 1805 columns (presolve time = 65s) ...
Presolve removed 215 rows and 1805 columns (presolve time = 75s) ...
Presolve removed 215 rows and 1805 columns (presolve time = 82s) ...
Presolve removed 215 rows and 1805 columns (presolve time = 90s) ...
Presolve removed 215 rows and 1805 columns (presolve time = 95s) ...
Presolve removed 215 rows and 1805 columns (presolve time = 100s) ...
Presolve removed 215 rows and 1805 columns (presolve time = 110s) ...
Presolve removed 215 rows and 1805 columns (presolve time = 110s) ...
Presolve removed 215 rows and 1805 columns (presolve time = 146s) ...
Presolve removed 215 rows and 1805 columns (presolve time = 150s) ...
Presolve removed 215 rows and 1805 columns (presolve time = 155s) ...
Presolve removed 215 rows and 1805 columns (presolve time = 160s) ...
Presolve removed 215 rows and 1805 columns (presolve time = 165s) ...
Presolve removed 215 rows and 1805 columns (presolve time = 170s) ...
Presolve removed 215 rows and 1805 columns (presolve time = 175s) ...
Presolve removed 215 rows and 1805 columns (presolve time = 180s) ...
Presolve removed 215 rows and 1805 columns (presolve time = 185s) ...
Presolve removed 215 rows and 1805 columns (presolve time = 190s) ...
Presolve removed 215 rows and 1805 columns (presolve time = 195s) ...
Presolve removed 215 rows and 1805 columns (presolve time = 200s) ...
Presolve removed 215 rows and 1805 columns (presolve time = 206s) ...
Presolve removed 215 rows and 1805 columns (presolve time = 210s) ...
Presolve removed 215 rows and 1805 columns (presolve time = 215s) ...
Presolve removed 215 rows and 1805 columns (presolve time = 220s) ...
Presolve removed 215 rows and 1805 columns (presolve time = 225s) ...
Presolve removed 215 rows and 1805 columns (presolve time = 230s) ...
Presolve removed 215 rows and 1805 columns (presolve time = 235s) ...
Presolve removed 215 rows and 1805 columns (presolve time = 240s) ...
Presolve removed 215 rows and 1805 columns (presolve time = 245s) ...
Presolve removed 215 rows and 1805 columns (presolve time = 250s) ...
Presolve removed 215 rows and 1805 columns (presolve time = 255s) ...
Presolve removed 215 rows and 1805 columns (presolve time = 260s) ...
Presolve removed 215 rows and 1805 columns (presolve time = 265s) ...
Presolve removed 215 rows and 1805 columns (presolve time = 270s) ...
Presolve removed 215 rows and 1805 columns (presolve time = 275s) ...
Presolve removed 215 rows and 1805 columns (presolve time = 280s) ...
Presolve removed 215 rows and 1805 columns (presolve time = 285s) ...
Presolve removed 215 rows and 1805 columns (presolve time = 290s) ...
Presolve removed 215 rows and 1805 columns (presolve time = 295s) ...
Presolve removed 215 rows and 1805 columns (presolve time = 300s) ...
Presolve removed 215 rows and 1805 columns (presolve time = 305s) ...
Presolve removed 215 rows and 1805 columns (presolve time = 311s) ...
Presolve removed 215 rows and 1805 columns (presolve time = 315s) ...
Presolve removed 215 rows and 1805 columns (presolve time = 320s) ...
Presolve removed 215 rows and 1805 columns (presolve time = 325s) ...
Presolve removed 215 rows and 1805 columns (presolve time = 330s) ...
Presolve removed 215 rows and 1805 columns (presolve time = 335s) ...
Presolve removed 215 rows and 1805 columns (presolve time = 340s) ...
Presolve removed 215 rows and 1805 columns (presolve time = 345s) ...
Presolve removed 215 rows and 1805 columns (presolve time = 350s) ...
Presolve removed 215 rows and 1805 columns (presolve time = 355s) ...
Presolve removed 215 rows and 1805 columns (presolve time = 360s) ...
Presolve removed 215 rows and 1805 columns (presolve time = 365s) ...
Presolve removed 215 rows and 1805 columns (presolve time = 370s) ...
Presolve removed 215 rows and 1805 columns (presolve time = 375s) ...
Presolve removed 215 rows and 1805 columns (presolve time = 380s) ...
Presolve removed 215 rows and 1805 columns (presolve time = 385s) ...
Presolve removed 215 rows and 1805 columns (presolve time = 390s) ...
Presolve removed 215 rows and 1805 columns (presolve time = 396s) ...
Presolve removed 215 rows and 1805 columns (presolve time = 401s) ...
Presolve removed 215 rows and 1805 columns (presolve time = 405s) ...
Presolve removed 215 rows and 1805 columns (presolve time = 410s) ...
Presolve removed 215 rows and 1805 columns (presolve time = 415s) ...
Presolve removed 215 rows and 1805 columns (presolve time = 420s) ...
Presolve removed 215 rows and 1805 columns (presolve time = 425s) ...
Presolve removed 215 rows and 1805 columns (presolve time = 430s) ...
Presolve removed 215 rows and 1805 columns (presolve time = 435s) ...
Presolve removed 215 rows and 1805 columns (presolve time = 440s) ...
Presolve removed 215 rows and 1805 columns (presolve time = 445s) ...
Presolve removed 215 rows and 1805 columns (presolve time = 450s) ...
Presolve removed 215 rows and 1805 columns (presolve time = 455s) ...
Presolve removed 215 rows and 1805 columns (presolve time = 460s) ...
Presolve removed 215 rows and 1805 columns (presolve time = 465s) ...
Presolve removed 215 rows and 1805 columns (presolve time = 470s) ...
Presolve removed 215 rows and 1805 columns (presolve time = 475s) ...
Presolve removed 215 rows and 1805 columns (presolve time = 480s) ...
Presolve removed 215 rows and 1805 columns (presolve time = 485s) ...
Presolve removed 215 rows and 1805 columns (presolve time = 490s) ...
Presolve removed 215 rows and 1805 columns (presolve time = 496s) ...
Presolve removed 215 rows and 1805 columns (presolve time = 500s) ...
Presolve removed 215 rows and 1805 columns (presolve time = 505s) ...
Presolve removed 215 rows and 1805 columns (presolve time = 510s) ...
Presolve removed 215 rows and 1805 columns (presolve time = 515s) ...
Presolve removed 215 rows and 1805 columns (presolve time = 520s) ...
Presolve removed 215 rows and 1805 columns (presolve time = 525s) ...
Presolve removed 215 rows and 1805 columns (presolve time = 530s) ...
Presolve removed 215 rows and 1805 columns (presolve time = 536s) ...
Presolve removed 215 rows and 1805 columns (presolve time = 540s) ...
Presolve removed 215 rows and 1805 columns (presolve time = 545s) ...
Presolve removed 215 rows and 1805 columns (presolve time = 550s) ...
Presolve removed 215 rows and 1805 columns (presolve time = 555s) ...
Presolve removed 215 rows and 1805 columns (presolve time = 560s) ...
Presolve removed 215 rows and 1805 columns (presolve time = 565s) ...
Presolve removed 215 rows and 1805 columns (presolve time = 570s) ...
Presolve removed 215 rows and 1805 columns (presolve time = 576s) ...
Presolve removed 215 rows and 1805 columns (presolve time = 580s) ...
Presolve removed 215 rows and 1805 columns (presolve time = 585s) ...
Presolve removed 215 rows and 1805 columns (presolve time = 590s) ...
Presolve removed 215 rows and 1805 columns (presolve time = 596s) ...
Presolve removed 215 rows and 1805 columns (presolve time = 600s) ...
Presolve removed 215 rows and 1805 columns (presolve time = 605s) ...
Presolve removed 215 rows and 1805 columns (presolve time = 611s) ...
Presolve removed 215 rows and 1805 columns (presolve time = 616s) ...
Presolve removed 215 rows and 1805 columns
Presolve time: 616.18s
Presolved: 9341 rows, 125014 columns, 103439929 nonzeros
Variable types: 0 continuous, 125014 integer (125014 binary)

Root simplex log...

Iteration    Objective       Primal Inf.    Dual Inf.      Time
       0    6.5317602e+07   3.747127e+07   0.000000e+00    626s
    4111    5.5538903e+04   1.894149e+05   0.000000e+00    630s
    6104    5.0264377e+04   1.128812e+05   0.000000e+00    636s
    7850    4.6173412e+04   6.220663e+04   0.000000e+00    641s
    9131    4.3302553e+04   3.275939e+04   0.000000e+00    645s
   10336    4.1185068e+04   1.234351e+05   0.000000e+00    650s
   11725    3.8915758e+04   1.856352e+04   0.000000e+00    656s
   12637    3.7988727e+04   5.602057e+04   0.000000e+00    661s
   13465    3.6995262e+04   1.454306e+05   0.000000e+00    666s
   14275    3.6121619e+04   6.116683e+04   0.000000e+00    671s
   14880    3.5521386e+04   6.894114e+04   0.000000e+00    675s
   15660    3.4672994e+04   4.699474e+04   0.000000e+00    680s
   16390    3.4011362e+04   1.791524e+04   0.000000e+00    686s
   17193    3.3589727e+04   4.025858e+04   0.000000e+00    692s
   17763    3.3321579e+04   3.616398e+04   0.000000e+00    696s
   18307    3.3083853e+04   7.843320e+04   0.000000e+00    701s
   18872    3.2864551e+04   2.952269e+04   0.000000e+00    705s
   19413    3.2659678e+04   5.916599e+04   0.000000e+00    710s
   19949    3.2508802e+04   2.009701e+04   0.000000e+00    715s
   20508    3.2337186e+04   1.618716e+04   0.000000e+00    720s
   21046    3.2216491e+04   3.880906e+04   0.000000e+00    725s
   21597    3.2063176e+04   7.378628e+04   0.000000e+00    730s
   22143    3.1951918e+04   7.142124e+04   0.000000e+00    735s
   22684    3.1841007e+04   3.166714e+04   0.000000e+00    741s
   23218    3.1721855e+04   5.040783e+04   0.000000e+00    746s
   23747    3.1589566e+04   3.415982e+03   0.000000e+00    751s
   24282    3.1490067e+04   1.728674e+04   0.000000e+00    757s
   24660    3.1428875e+04   4.941425e+04   0.000000e+00    760s
   25204    3.1337826e+04   4.272578e+03   0.000000e+00    766s
   25752    3.1244459e+04   1.777707e+04   0.000000e+00    771s
   26117    3.1192997e+04   1.399147e+04   0.000000e+00    775s
   26645    3.1094715e+04   4.942327e+03   0.000000e+00    781s
   27186    3.0991354e+04   1.368924e+04   0.000000e+00    786s
   27754    3.0901918e+04   1.137997e+04   0.000000e+00    792s
   28143    3.0853446e+04   1.421115e+05   0.000000e+00    796s
   28740    3.0779836e+04   2.755129e+03   0.000000e+00    802s
   29134    3.0726932e+04   1.995967e+04   0.000000e+00    806s
   29701    3.0639410e+04   1.489615e+04   0.000000e+00    812s
   30083    3.0581515e+04   6.709995e+03   0.000000e+00    816s
   30435    3.0536318e+04   1.383117e+04   0.000000e+00    820s
   30968    3.0466335e+04   1.328067e+04   0.000000e+00    827s
   31326    3.0422118e+04   5.144060e+04   0.000000e+00    831s
   31673    3.0381450e+04   2.724903e+04   0.000000e+00    835s
   32230    3.0329646e+04   6.192103e+03   0.000000e+00    842s
   32581    3.0298792e+04   4.133531e+03   0.000000e+00    847s
   32950    3.0259583e+04   1.693467e+04   0.000000e+00    851s
   33299    3.0228825e+04   4.633427e+05   0.000000e+00    856s
   33675    3.0204311e+04   1.963706e+03   0.000000e+00    861s
   34056    3.0184384e+04   2.022482e+03   0.000000e+00    865s
   34423    3.0164716e+04   8.816055e+03   0.000000e+00    870s
   34805    3.0148376e+04   6.227600e+03   0.000000e+00    875s
   35182    3.0133996e+04   1.870176e+04   0.000000e+00    880s
   35556    3.0118389e+04   6.705606e+03   0.000000e+00    885s
   36013    3.0106164e+04   2.338817e+04   0.000000e+00    891s
   36403    3.0093547e+04   3.120966e+03   0.000000e+00    896s
   36777    3.0081773e+04   9.025879e+03   0.000000e+00    901s
   37151    3.0066996e+04   1.672199e+03   0.000000e+00    906s
   37538    3.0054167e+04   2.351387e+03   0.000000e+00    911s
   37918    3.0043518e+04   1.180777e+03   0.000000e+00    916s
   38315    3.0034046e+04   3.671196e+03   0.000000e+00    921s
   38608    3.0027983e+04   1.619641e+03   0.000000e+00    925s
   38957    3.0017590e+04   7.926910e+03   0.000000e+00    930s
   39316    3.0005680e+04   2.070644e+03   0.000000e+00    936s
   39678    2.9996053e+04   4.298543e+03   0.000000e+00    941s
   40030    2.9983132e+04   1.116989e+03   0.000000e+00    946s
   40399    2.9974179e+04   1.323382e+03   0.000000e+00    951s
   40753    2.9964597e+04   2.535930e+03   0.000000e+00    956s
   41126    2.9956173e+04   6.799853e+02   0.000000e+00    961s
   41499    2.9947972e+04   2.070505e+03   0.000000e+00    967s
   41881    2.9940793e+04   6.103527e+03   0.000000e+00    972s
   42262    2.9932753e+04   3.636478e+03   0.000000e+00    978s
   42446    2.9929449e+04   7.112232e+03   0.000000e+00    980s
   42841    2.9923062e+04   1.985649e+03   0.000000e+00    986s
   43210    2.9913917e+04   3.371247e+03   0.000000e+00    991s
   43581    2.9907249e+04   1.129211e+03   0.000000e+00    997s
   43947    2.9900700e+04   2.589487e+03   0.000000e+00   1002s
   44316    2.9893936e+04   3.396295e+03   0.000000e+00   1007s
   44697    2.9886796e+04   1.705003e+03   0.000000e+00   1013s
   44891    2.9883836e+04   8.334351e+02   0.000000e+00   1015s
   45272    2.9878515e+04   7.167561e+02   0.000000e+00   1021s
   45644    2.9873499e+04   9.766386e+02   0.000000e+00   1026s
   46006    2.9868938e+04   3.537857e+03   0.000000e+00   1032s
   46372    2.9864020e+04   9.821887e+02   0.000000e+00   1037s
   46746    2.9860089e+04   6.491527e+03   0.000000e+00   1041s
   47105    2.9857071e+04   1.481383e+03   0.000000e+00   1046s
   47479    2.9853833e+04   3.017716e+02   0.000000e+00   1050s
   47846    2.9850719e+04   4.637157e+02   0.000000e+00   1055s
   48420    2.9846950e+04   3.890216e+02   0.000000e+00   1062s
   48795    2.9844929e+04   7.373316e+02   0.000000e+00   1067s
   49179    2.9842569e+04   4.253957e+02   0.000000e+00   1072s
   49566    2.9840138e+04   4.989262e+02   0.000000e+00   1077s
   49943    2.9838319e+04   1.603844e+03   0.000000e+00   1081s
   50331    2.9836161e+04   6.516829e+02   0.000000e+00   1086s
   50712    2.9834425e+04   7.413027e+02   0.000000e+00   1091s
   51081    2.9832640e+04   1.284909e+02   0.000000e+00   1096s
   51464    2.9831094e+04   6.657199e+02   0.000000e+00   1101s
   51859    2.9829208e+04   3.505146e+02   0.000000e+00   1106s
   52248    2.9827554e+04   3.560878e+02   0.000000e+00   1111s
   52638    2.9826109e+04   2.360225e+02   0.000000e+00   1116s
   53010    2.9824495e+04   2.911609e+02   0.000000e+00   1121s
   53411    2.9822952e+04   7.908044e+02   0.000000e+00   1126s
   53815    2.9821434e+04   6.156137e+02   0.000000e+00   1131s
   54212    2.9820019e+04   6.291938e+02   0.000000e+00   1136s
   54627    2.9818704e+04   2.566301e+02   0.000000e+00   1142s
   55012    2.9817427e+04   8.799979e+02   0.000000e+00   1147s
   55393    2.9816204e+04   4.322817e+02   0.000000e+00   1152s
   55777    2.9815146e+04   5.859321e+02   0.000000e+00   1157s
   56158    2.9814284e+04   3.691538e+02   0.000000e+00   1162s
   56556    2.9813643e+04   3.421952e+02   0.000000e+00   1167s
   56948    2.9812844e+04   4.111185e+02   0.000000e+00   1172s
   57334    2.9812132e+04   9.523176e+01   0.000000e+00   1177s
   57727    2.9811549e+04   1.550872e+02   0.000000e+00   1183s
   57922    2.9811321e+04   1.644065e+02   0.000000e+00   1185s
   58305    2.9810874e+04   4.863189e+01   0.000000e+00   1190s
   58702    2.9810305e+04   2.484611e+02   0.000000e+00   1195s
   59080    2.9809896e+04   5.014439e+02   0.000000e+00   1201s
   59460    2.9809531e+04   8.541816e+02   0.000000e+00   1206s
   59837    2.9809141e+04   1.501451e+02   0.000000e+00   1211s
   60231    2.9808735e+04   1.296496e+02   0.000000e+00   1216s
   60621    2.9808440e+04   1.894025e+02   0.000000e+00   1222s
   61010    2.9808122e+04   1.354380e+02   0.000000e+00   1227s
   61399    2.9807739e+04   8.684634e+01   0.000000e+00   1232s
   61807    2.9807478e+04   5.504598e+01   0.000000e+00   1238s
   62007    2.9807348e+04   3.227432e+01   0.000000e+00   1240s
   62394    2.9807116e+04   7.496720e+02   0.000000e+00   1246s
   62802    2.9806910e+04   8.189952e+01   0.000000e+00   1251s
   63196    2.9806728e+04   2.306743e+01   0.000000e+00   1257s
   63576    2.9806539e+04   2.836215e+02   0.000000e+00   1262s
   63966    2.9806363e+04   5.960888e+01   0.000000e+00   1268s
   64157    2.9806270e+04   3.303857e+01   0.000000e+00   1270s
   64547    2.9806078e+04   1.076999e+02   0.000000e+00   1276s
   64938    2.9805947e+04   2.495392e+01   0.000000e+00   1281s
   65318    2.9805794e+04   3.866503e+01   0.000000e+00   1287s
   65698    2.9805675e+04   9.029214e+01   0.000000e+00   1292s
   66089    2.9805555e+04   1.565072e+02   0.000000e+00   1298s
   66280    2.9805490e+04   8.239301e+01   0.000000e+00   1300s
   66673    2.9805370e+04   2.022665e+01   0.000000e+00   1306s
   67071    2.9805209e+04   3.030975e+02   0.000000e+00   1312s
   67471    2.9805093e+04   8.696261e+01   0.000000e+00   1318s
   67673    2.9805046e+04   2.455658e+01   0.000000e+00   1321s
   68062    2.9804960e+04   2.129889e+01   0.000000e+00   1326s
   68470    2.9804883e+04   3.800809e+01   0.000000e+00   1332s
   68658    2.9804838e+04   2.645475e+01   0.000000e+00   1335s
   69053    2.9804770e+04   7.682197e+01   0.000000e+00   1341s
   69462    2.9804688e+04   3.931440e+01   0.000000e+00   1347s
   69671    2.9804646e+04   1.530443e+01   0.000000e+00   1350s
   70072    2.9804579e+04   3.757646e+01   0.000000e+00   1356s
   70482    2.9804511e+04   1.125322e+01   0.000000e+00   1362s
   70692    2.9804480e+04   2.557238e+01   0.000000e+00   1366s
   71108    2.9804413e+04   4.090160e+01   0.000000e+00   1372s
   71513    2.9804353e+04   2.982578e+02   0.000000e+00   1378s
   71718    2.9804321e+04   6.000874e+01   0.000000e+00   1381s
   72124    2.9804260e+04   8.216286e+01   0.000000e+00   1388s
   72329    2.9804238e+04   4.488487e+01   0.000000e+00   1391s
   72713    2.9804185e+04   7.233796e+02   0.000000e+00   1397s
   73108    2.9804142e+04   2.581551e+02   0.000000e+00   1403s
   73301    2.9804118e+04   3.620460e+01   0.000000e+00   1406s
   73679    2.9804080e+04   3.211374e+01   0.000000e+00   1412s
   73870    2.9804069e+04   2.085748e+01   0.000000e+00   1415s
   74260    2.9804050e+04   3.324288e+01   0.000000e+00   1421s
   74636    2.9804036e+04   7.439596e-01   0.000000e+00   1427s
   74832    2.9804035e+04   1.449717e+00   0.000000e+00   1430s
   75225    2.9804033e+04   4.055460e-01   0.000000e+00   1436s
   75625    2.9804031e+04   1.010294e+00   0.000000e+00   1443s
   75821    2.9804031e+04   9.309222e-01   0.000000e+00   1446s
   76219    2.9804029e+04   2.925246e-01   0.000000e+00   1452s
   76412    2.9804028e+04   8.681103e-01   0.000000e+00   1456s
   76812    2.9804027e+04   1.893099e-01   0.000000e+00   1463s
   77009    2.9804026e+04   7.366219e-01   0.000000e+00   1466s
   77417    2.9804025e+04   5.997992e-01   0.000000e+00   1473s
   77656    2.9804025e+04   2.425564e-01   0.000000e+00   1477s
   77855    2.9804024e+04   4.529934e-01   0.000000e+00   1481s
   78262    2.9804023e+04   2.584645e-01   0.000000e+00   1487s
   78468    2.9804023e+04   4.549796e-01   0.000000e+00   1491s
   78904    2.9804021e+04   5.921223e+00   0.000000e+00   1498s
   79106    2.9804021e+04   1.696444e-01   0.000000e+00   1502s
   79315    2.9804021e+04   7.774877e-01   0.000000e+00   1506s
   79726    2.9804019e+04   5.482293e-01   0.000000e+00   1513s
   79927    2.9804019e+04   2.273481e-01   0.000000e+00   1516s
   80330    2.9804018e+04   1.585449e+00   0.000000e+00   1524s
   80537    2.9804018e+04   2.776236e-01   0.000000e+00   1528s
   80747    2.9804017e+04   6.671202e-01   0.000000e+00   1532s
   80956    2.9804017e+04   2.920487e-01   0.000000e+00   1535s
   81377    2.9804016e+04   2.404347e-01   0.000000e+00   1544s
   81591    2.9804016e+04   2.240817e-01   0.000000e+00   1548s
   81796    2.9804016e+04   1.064129e+00   0.000000e+00   1551s
   81999    2.9804016e+04   3.010921e-01   0.000000e+00   1555s
   82202    2.9804017e+04   0.000000e+00   0.000000e+00   1559s

Root relaxation: objective 2.980402e+04, 82202 iterations, 937.08 seconds
Total elapsed time = 1598.94s
Total elapsed time = 1602.77s
Total elapsed time = 1606.76s

    Nodes    |    Current Node    |     Objective Bounds      |     Work
 Expl Unexpl |  Obj  Depth IntInf | Incumbent    BestBd   Gap | It/Node Time

     0     0 29804.0168    0  342 13920.0000 29804.0168   114%     - 1611s
H    0     0                    29271.000000 29804.0168  1.82%     - 1652s

Explored 1 nodes (83725 simplex iterations) in 1800.36 seconds
Thread count was 8 (of 8 available processors)

Solution count 2: 29271 13920 

Time limit reached
Best objective 2.927100000000e+04, best bound 2.980400000000e+04, gap 1.8209%
Obj: 29271
